decision_x1=[0,7];
decision_x2=[0,7];
decision_x3=[0,7];
decision_x4=[0,7];
decision_x5=[0,7];
decision_x6=[0,7];
decision_x7=[0,7];
decision_x8=[0,7];
decision_x9=[0,7];
decision_x10=[0,7];
decision_x11=[0,7];
decision_x12=[0,7];
decision_x13=[0,7];
decision_x14=[0,7];
decision_x15=[0,7];
decision_x16=[0,7];
random_y1=[0,7];
random_y2=[0,7];
random_y3=[0,7];
random_y4=[0,7];
random_y5=[0,7];
random_y6=[0,7];
random_y7=[0,7];
constraint_x2_x1=[
0,0,5.9|
0,1,2|
0,2,2.3|
0,3,8.1|
0,4,0.66|
0,5,3.7|
0,6,4.4|
0,7,7.1|
1,0,5.3|
1,1,3.3|
1,2,7.5|
1,3,5.6|
1,4,5.2|
1,5,4.1|
1,6,5.1|
1,7,6.6|
2,0,9.6|
2,1,1.2|
2,2,5.9|
2,3,5.6|
2,4,1.9|
2,5,1.7|
2,6,2.1|
2,7,2.5|
3,0,5.7|
3,1,3.9|
3,2,3.8|
3,3,4.7|
3,4,1.7|
3,5,9.2|
3,6,3.6|
3,7,7.6|
4,0,0.98|
4,1,7.4|
4,2,1.9|
4,3,8.6|
4,4,7|
4,5,4.7|
4,6,8.5|
4,7,7.6|
5,0,5.8|
5,1,0.44|
5,2,8.1|
5,3,3.3|
5,4,0.58|
5,5,4.6|
5,6,6.8|
5,7,3.5|
6,0,9.6|
6,1,9.9|
6,2,4.7|
6,3,5.3|
6,4,8.8|
6,5,6.2|
6,6,7.3|
6,7,3.3|
7,0,4.2|
7,1,5.7|
7,2,9.3|
7,3,7.7|
7,4,8.7|
7,5,5.1|
7,6,8.6|
7,7,8.5|
];
constraint_x3_x2=[
0,0,7.9|
0,1,4.9|
0,2,3.5|
0,3,3.9|
0,4,0.73|
0,5,7.6|
0,6,4.7|
0,7,1.4|
1,0,2|
1,1,9.3|
1,2,4.9|
1,3,4.7|
1,4,4.4|
1,5,4.8|
1,6,9.6|
1,7,0.19|
2,0,6.7|
2,1,2.4|
2,2,0.79|
2,3,4.7|
2,4,4.2|
2,5,8.2|
2,6,3.2|
2,7,9.3|
3,0,2.1|
3,1,4.6|
3,2,3.8|
3,3,3.8|
3,4,9.1|
3,5,7.3|
3,6,8.2|
3,7,4.8|
4,0,3.9|
4,1,7.2|
4,2,5.5|
4,3,6.2|
4,4,2.9|
4,5,2.9|
4,6,9.8|
4,7,6.7|
5,0,8.8|
5,1,3.7|
5,2,9.5|
5,3,5.3|
5,4,3.1|
5,5,6.9|
5,6,0.64|
5,7,7.9|
6,0,3|
6,1,1.8|
6,2,9.2|
6,3,1.3|
6,4,3.5|
6,5,8.3|
6,6,5.7|
6,7,3.3|
7,0,3.3|
7,1,6.7|
7,2,9|
7,3,6.9|
7,4,8.1|
7,5,0.38|
7,6,0.48|
7,7,8.7|
];
constraint_x4_x3=[
0,0,3.1|
0,1,4.4|
0,2,9.9|
0,3,2.6|
0,4,4.8|
0,5,4.1|
0,6,5.8|
0,7,6.9|
1,0,6.4|
1,1,8.2|
1,2,1.5|
1,3,2.8|
1,4,5.3|
1,5,2.6|
1,6,0.47|
1,7,5|
2,0,2.1|
2,1,2.8|
2,2,1.4|
2,3,6.8|
2,4,8.9|
2,5,9.6|
2,6,9.6|
2,7,8.1|
3,0,4.3|
3,1,8.4|
3,2,4.1|
3,3,6.9|
3,4,0.62|
3,5,0.66|
3,6,7.1|
3,7,4.2|
4,0,6.5|
4,1,1.5|
4,2,3.7|
4,3,7.7|
4,4,0.86|
4,5,8.8|
4,6,4.2|
4,7,8|
5,0,8.3|
5,1,9.2|
5,2,3.8|
5,3,6.1|
5,4,0.55|
5,5,3.3|
5,6,9|
5,7,2.4|
6,0,6.8|
6,1,10|
6,2,6.7|
6,3,0.64|
6,4,6.3|
6,5,2.7|
6,6,6.1|
6,7,4.9|
7,0,9.2|
7,1,0.76|
7,2,0.0042|
7,3,6.8|
7,4,1.3|
7,5,6.9|
7,6,4.7|
7,7,7.2|
];
constraint_x5_x1=[
0,0,2.4|
0,1,2.5|
0,2,1.7|
0,3,4.1|
0,4,3|
0,5,5.1|
0,6,8.7|
0,7,2.2|
1,0,8.8|
1,1,8|
1,2,6.5|
1,3,2.5|
1,4,5.7|
1,5,4.6|
1,6,6.1|
1,7,0.12|
2,0,4.3|
2,1,3.5|
2,2,4.1|
2,3,9.2|
2,4,3.4|
2,5,6|
2,6,2.5|
2,7,3.5|
3,0,0.048|
3,1,4|
3,2,2.9|
3,3,3.8|
3,4,2.4|
3,5,9.4|
3,6,7.1|
3,7,3.7|
4,0,7.9|
4,1,0.22|
4,2,4.5|
4,3,8.4|
4,4,3.2|
4,5,3.6|
4,6,5.3|
4,7,6.3|
5,0,5.2|
5,1,9|
5,2,4.9|
5,3,8|
5,4,8.1|
5,5,9.9|
5,6,1.1|
5,7,1.9|
6,0,5|
6,1,6.1|
6,2,9.2|
6,3,1.7|
6,4,9.6|
6,5,0.49|
6,6,3.3|
6,7,1|
7,0,3.1|
7,1,4|
7,2,5.9|
7,3,0.51|
7,4,5.7|
7,5,8.7|
7,6,6.3|
7,7,2.5|
];
constraint_x6_x2=[
0,0,3.2|
0,1,3.3|
0,2,4.4|
0,3,9.9|
0,4,7.5|
0,5,5.1|
0,6,8|
0,7,1.8|
1,0,2.6|
1,1,7.1|
1,2,2|
1,3,0.72|
1,4,9.4|
1,5,7.3|
1,6,8.4|
1,7,7.7|
2,0,4.8|
2,1,6.4|
2,2,3.8|
2,3,9.9|
2,4,8.5|
2,5,1.6|
2,6,8.7|
2,7,4.3|
3,0,8.3|
3,1,9.7|
3,2,2.8|
3,3,5|
3,4,3.5|
3,5,2.4|
3,6,7.8|
3,7,6.7|
4,0,0.92|
4,1,6.1|
4,2,7|
4,3,8.8|
4,4,5.7|
4,5,8.9|
4,6,0.12|
4,7,1|
5,0,3|
5,1,5.3|
5,2,3.9|
5,3,6.4|
5,4,1.5|
5,5,5.3|
5,6,6.3|
5,7,2.7|
6,0,9.4|
6,1,8.4|
6,2,1.3|
6,3,9.7|
6,4,5.8|
6,5,5.6|
6,6,2|
6,7,8.3|
7,0,8.2|
7,1,8|
7,2,7.9|
7,3,2.2|
7,4,3.6|
7,5,3.7|
7,6,3.8|
7,7,8.3|
];
constraint_x6_x5=[
0,0,6.7|
0,1,9.1|
0,2,0.89|
0,3,4|
0,4,2.7|
0,5,0.44|
0,6,3.3|
0,7,1.2|
1,0,1.3|
1,1,0.62|
1,2,3.8|
1,3,0.97|
1,4,6.3|
1,5,2.3|
1,6,0.54|
1,7,4.2|
2,0,9|
2,1,7.2|
2,2,3.8|
2,3,8|
2,4,0.096|
2,5,9.6|
2,6,9.7|
2,7,7.1|
3,0,2.1|
3,1,6.2|
3,2,8.4|
3,3,2.1|
3,4,3.1|
3,5,8.3|
3,6,1.1|
3,7,9.2|
4,0,6.6|
4,1,5.2|
4,2,7.8|
4,3,7.4|
4,4,4.8|
4,5,9.6|
4,6,8.7|
4,7,1.8|
5,0,8.7|
5,1,9.8|
5,2,2.9|
5,3,2.4|
5,4,0.96|
5,5,5.1|
5,6,5.9|
5,7,7.3|
6,0,8.6|
6,1,6.3|
6,2,4.3|
6,3,7|
6,4,2.5|
6,5,0.56|
6,6,9.9|
6,7,5.4|
7,0,2.4|
7,1,6.3|
7,2,5.8|
7,3,5|
7,4,3|
7,5,6.5|
7,6,4.9|
7,7,8.5|
];
constraint_x7_x3=[
0,0,5.9|
0,1,1.7|
0,2,5.2|
0,3,10|
0,4,2.8|
0,5,5.2|
0,6,5.4|
0,7,4.5|
1,0,1|
1,1,5.8|
1,2,0.77|
1,3,9.2|
1,4,6.1|
1,5,9.2|
1,6,7.4|
1,7,8.4|
2,0,1.3|
2,1,8.9|
2,2,1.5|
2,3,7|
2,4,4.7|
2,5,2.8|
2,6,1.8|
2,7,8.6|
3,0,8.5|
3,1,0.38|
3,2,1.3|
3,3,8.1|
3,4,4.3|
3,5,3.4|
3,6,3.1|
3,7,0.74|
4,0,6|
4,1,0.53|
4,2,7.1|
4,3,9.9|
4,4,5.1|
4,5,7|
4,6,0.83|
4,7,0.73|
5,0,1.7|
5,1,3.8|
5,2,7|
5,3,8.7|
5,4,2.3|
5,5,2.9|
5,6,9.3|
5,7,0.96|
6,0,2.5|
6,1,7.7|
6,2,8|
6,3,0.24|
6,4,3.6|
6,5,0.85|
6,6,0.19|
6,7,0.48|
7,0,1.1|
7,1,1.3|
7,2,5.7|
7,3,3.5|
7,4,6.2|
7,5,3.8|
7,6,2.4|
7,7,3.5|
];
constraint_x7_x6=[
0,0,9.3|
0,1,7.5|
0,2,8.7|
0,3,3.2|
0,4,3.5|
0,5,5.9|
0,6,0.91|
0,7,6.9|
1,0,0.52|
1,1,3.6|
1,2,0.091|
1,3,7|
1,4,8.4|
1,5,2.6|
1,6,6.5|
1,7,2|
2,0,0.29|
2,1,8.1|
2,2,6.5|
2,3,4|
2,4,0.68|
2,5,5.9|
2,6,4.2|
2,7,6.9|
3,0,6.6|
3,1,1.4|
3,2,7|
3,3,7.1|
3,4,1.7|
3,5,1.7|
3,6,7.5|
3,7,9.9|
4,0,7.8|
4,1,1.9|
4,2,4|
4,3,3.5|
4,4,1.5|
4,5,5.4|
4,6,2.4|
4,7,3.3|
5,0,6.6|
5,1,3.3|
5,2,7.8|
5,3,7.2|
5,4,1.1|
5,5,5|
5,6,2.6|
5,7,4.9|
6,0,1.5|
6,1,2.7|
6,2,4.8|
6,3,1.3|
6,4,3.5|
6,5,4.6|
6,6,2|
6,7,6|
7,0,9.5|
7,1,2.4|
7,2,9.5|
7,3,7.7|
7,4,3.4|
7,5,0.98|
7,6,6.4|
7,7,4.3|
];
constraint_x8_x4=[
0,0,3.2|
0,1,4.7|
0,2,7.3|
0,3,1.3|
0,4,2.2|
0,5,4.6|
0,6,3.2|
0,7,2.3|
1,0,6.8|
1,1,4.3|
1,2,1.7|
1,3,2.7|
1,4,7.1|
1,5,8.8|
1,6,6|
1,7,1.5|
2,0,5.2|
2,1,1.7|
2,2,4.4|
2,3,3.5|
2,4,2.1|
2,5,3.3|
2,6,8.8|
2,7,6.2|
3,0,6|
3,1,5.5|
3,2,8.4|
3,3,6.9|
3,4,8.8|
3,5,3.7|
3,6,7.4|
3,7,3.7|
4,0,5.3|
4,1,3.2|
4,2,6.4|
4,3,5|
4,4,7|
4,5,8.2|
4,6,10|
4,7,3.7|
5,0,5.8|
5,1,1.4|
5,2,0.68|
5,3,0.74|
5,4,1.2|
5,5,5.2|
5,6,9.2|
5,7,3.5|
6,0,3.9|
6,1,4|
6,2,8.1|
6,3,4.5|
6,4,0.54|
6,5,8.5|
6,6,4.3|
6,7,5.3|
7,0,0.3|
7,1,0.95|
7,2,0.35|
7,3,1.7|
7,4,6.5|
7,5,5.7|
7,6,3.3|
7,7,4.5|
];
constraint_x8_x7=[
0,0,4.7|
0,1,2.8|
0,2,3.5|
0,3,3.5|
0,4,7|
0,5,3.3|
0,6,7.5|
0,7,1.9|
1,0,7.2|
1,1,2.7|
1,2,3.2|
1,3,8.7|
1,4,7.5|
1,5,5.2|
1,6,6.8|
1,7,6.9|
2,0,8.8|
2,1,6.7|
2,2,3.6|
2,3,7.5|
2,4,1|
2,5,8.6|
2,6,9.5|
2,7,8.6|
3,0,3|
3,1,1.2|
3,2,8.8|
3,3,3.4|
3,4,6.5|
3,5,7.3|
3,6,3.1|
3,7,8.9|
4,0,9.7|
4,1,8.4|
4,2,2.2|
4,3,0.81|
4,4,2.8|
4,5,9|
4,6,9.4|
4,7,5.7|
5,0,8|
5,1,8.2|
5,2,5.1|
5,3,3.2|
5,4,4.7|
5,5,2.4|
5,6,6.2|
5,7,3.1|
6,0,7.1|
6,1,4.1|
6,2,7.5|
6,3,6.5|
6,4,4.4|
6,5,5.1|
6,6,3.1|
6,7,2.6|
7,0,1.7|
7,1,5.9|
7,2,3.7|
7,3,4.7|
7,4,2.8|
7,5,3.1|
7,6,1.5|
7,7,2.8|
];
constraint_x9_x5=[
0,0,9.7|
0,1,2|
0,2,2|
0,3,6.2|
0,4,8.8|
0,5,8.4|
0,6,9|
0,7,2.5|
1,0,0.45|
1,1,5.3|
1,2,1.5|
1,3,0.34|
1,4,3.9|
1,5,6|
1,6,8.9|
1,7,6.6|
2,0,1.6|
2,1,8.6|
2,2,6.6|
2,3,4|
2,4,4.5|
2,5,4.2|
2,6,2.1|
2,7,8.7|
3,0,0.28|
3,1,2|
3,2,7.2|
3,3,4.3|
3,4,9|
3,5,2.8|
3,6,6.2|
3,7,0.47|
4,0,3.7|
4,1,5.2|
4,2,2.1|
4,3,6.3|
4,4,0.52|
4,5,9.8|
4,6,7.7|
4,7,1|
5,0,5.7|
5,1,2.4|
5,2,5.8|
5,3,6.2|
5,4,1.9|
5,5,8.7|
5,6,8.9|
5,7,0.56|
6,0,9.8|
6,1,6.1|
6,2,1|
6,3,8.5|
6,4,9.8|
6,5,4.5|
6,6,3|
6,7,5.6|
7,0,9.2|
7,1,3.5|
7,2,8|
7,3,7.7|
7,4,9.8|
7,5,1.5|
7,6,4.9|
7,7,1.5|
];
constraint_x10_x6=[
0,0,3.5|
0,1,3.2|
0,2,7.6|
0,3,5.5|
0,4,0.62|
0,5,5.7|
0,6,7.4|
0,7,4.7|
1,0,8.6|
1,1,9.3|
1,2,6.9|
1,3,5|
1,4,2.7|
1,5,4.4|
1,6,4.6|
1,7,7.4|
2,0,1.2|
2,1,2.2|
2,2,8.9|
2,3,5.5|
2,4,8.9|
2,5,8.7|
2,6,0.71|
2,7,1.8|
3,0,8.5|
3,1,8.8|
3,2,3.2|
3,3,1.5|
3,4,9.2|
3,5,6.1|
3,6,0.74|
3,7,1.6|
4,0,1.9|
4,1,8.3|
4,2,1|
4,3,2.1|
4,4,4.4|
4,5,7.6|
4,6,1.8|
4,7,3.4|
5,0,6.8|
5,1,9|
5,2,2.1|
5,3,4.2|
5,4,4.8|
5,5,8.5|
5,6,2.5|
5,7,8.5|
6,0,7.6|
6,1,2.6|
6,2,5|
6,3,5|
6,4,3.4|
6,5,4.3|
6,6,8|
6,7,1|
7,0,8.8|
7,1,2.6|
7,2,8.3|
7,3,3.3|
7,4,8.6|
7,5,9.9|
7,6,4.7|
7,7,6.4|
];
constraint_x11_x7=[
0,0,4.6|
0,1,3.1|
0,2,1.4|
0,3,9.1|
0,4,8.9|
0,5,7.8|
0,6,0.52|
0,7,8.6|
1,0,5.4|
1,1,9.4|
1,2,3.3|
1,3,9.6|
1,4,5.4|
1,5,7.5|
1,6,2.5|
1,7,8|
2,0,4.7|
2,1,6.6|
2,2,8.8|
2,3,5.6|
2,4,3|
2,5,7.9|
2,6,4.1|
2,7,6.8|
3,0,3.4|
3,1,0.69|
3,2,8.9|
3,3,7.4|
3,4,6.5|
3,5,9.1|
3,6,7.5|
3,7,7.3|
4,0,4|
4,1,3.3|
4,2,5.2|
4,3,0.51|
4,4,7.1|
4,5,1.8|
4,6,0.2|
4,7,7.5|
5,0,3.4|
5,1,0.88|
5,2,1.2|
5,3,9.6|
5,4,9.5|
5,5,7.6|
5,6,0.76|
5,7,9.9|
6,0,6.6|
6,1,5|
6,2,0.91|
6,3,1.8|
6,4,1.8|
6,5,3.5|
6,6,4.1|
6,7,0.91|
7,0,7.8|
7,1,7.1|
7,2,6.7|
7,3,1.7|
7,4,7.2|
7,5,1.4|
7,6,7.8|
7,7,0.86|
];
constraint_x12_x8=[
0,0,9.2|
0,1,0.74|
0,2,8.9|
0,3,0.72|
0,4,8.4|
0,5,5.5|
0,6,1|
0,7,3.4|
1,0,4.6|
1,1,6.8|
1,2,1.4|
1,3,2.5|
1,4,2.2|
1,5,4.7|
1,6,7.2|
1,7,0.22|
2,0,6.4|
2,1,5.5|
2,2,1.4|
2,3,8.5|
2,4,2.7|
2,5,4.1|
2,6,7.2|
2,7,9|
3,0,8.4|
3,1,1.7|
3,2,6.7|
3,3,1.3|
3,4,0.69|
3,5,0.45|
3,6,8.9|
3,7,3.9|
4,0,10|
4,1,6.2|
4,2,5.7|
4,3,2.1|
4,4,6.5|
4,5,3.5|
4,6,0.36|
4,7,7.3|
5,0,5.5|
5,1,9.2|
5,2,5.3|
5,3,2.1|
5,4,7.8|
5,5,9.9|
5,6,1.2|
5,7,7.4|
6,0,5.4|
6,1,1|
6,2,4.3|
6,3,0.37|
6,4,7.5|
6,5,6|
6,6,9.3|
6,7,3.5|
7,0,6|
7,1,9.8|
7,2,5.5|
7,3,3.8|
7,4,7.9|
7,5,5.7|
7,6,9.8|
7,7,1.4|
];
constraint_x13_x9=[
0,0,8.5|
0,1,4.4|
0,2,8.2|
0,3,4.1|
0,4,9.3|
0,5,6.1|
0,6,2.6|
0,7,3.4|
1,0,1.7|
1,1,3.3|
1,2,3|
1,3,8.4|
1,4,1.6|
1,5,6.7|
1,6,2.9|
1,7,1.5|
2,0,7.9|
2,1,3.8|
2,2,2|
2,3,2.4|
2,4,1.6|
2,5,6.7|
2,6,0.92|
2,7,7.1|
3,0,2.7|
3,1,0.67|
3,2,6.4|
3,3,1.7|
3,4,8|
3,5,7.6|
3,6,5.9|
3,7,7.5|
4,0,4.6|
4,1,5.8|
4,2,5.3|
4,3,8.3|
4,4,4.5|
4,5,8|
4,6,9.9|
4,7,9.8|
5,0,6.5|
5,1,0.84|
5,2,0.1|
5,3,0.18|
5,4,0.86|
5,5,3.8|
5,6,4|
5,7,0.26|
6,0,3.4|
6,1,2.6|
6,2,0.94|
6,3,1.6|
6,4,2.2|
6,5,8.1|
6,6,0.65|
6,7,8.3|
7,0,9.8|
7,1,4.8|
7,2,9|
7,3,5.6|
7,4,6.2|
7,5,6.5|
7,6,0.55|
7,7,5.4|
];
constraint_x14_x10=[
0,0,9|
0,1,10|
0,2,9.4|
0,3,9.4|
0,4,9.5|
0,5,1.5|
0,6,8.3|
0,7,5.1|
1,0,9.6|
1,1,1.7|
1,2,2|
1,3,8|
1,4,1.8|
1,5,0.8|
1,6,3.3|
1,7,6.2|
2,0,7.2|
2,1,0.83|
2,2,2.3|
2,3,8.5|
2,4,7.8|
2,5,2.4|
2,6,9.3|
2,7,8.5|
3,0,2.8|
3,1,9.4|
3,2,8.9|
3,3,4.9|
3,4,8.2|
3,5,4|
3,6,8.8|
3,7,7.7|
4,0,7.9|
4,1,1.7|
4,2,8.9|
4,3,3.5|
4,4,2|
4,5,8.9|
4,6,9|
4,7,1.7|
5,0,3.5|
5,1,2.1|
5,2,8.4|
5,3,0.27|
5,4,2.2|
5,5,6.2|
5,6,6.6|
5,7,3.5|
6,0,0.89|
6,1,4.2|
6,2,4.2|
6,3,0.12|
6,4,8.6|
6,5,6.9|
6,6,1.4|
6,7,6.9|
7,0,1.9|
7,1,3|
7,2,0.47|
7,3,7.2|
7,4,5.6|
7,5,9.8|
7,6,2.4|
7,7,8.2|
];
constraint_x15_x11=[
0,0,4.3|
0,1,8.6|
0,2,7|
0,3,4|
0,4,1.3|
0,5,4|
0,6,7.8|
0,7,4|
1,0,9.7|
1,1,0.76|
1,2,5.4|
1,3,5.4|
1,4,8.1|
1,5,9.4|
1,6,8.9|
1,7,1.6|
2,0,8.1|
2,1,3.7|
2,2,10|
2,3,8.1|
2,4,5.3|
2,5,10|
2,6,7.5|
2,7,6.2|
3,0,7.1|
3,1,5.1|
3,2,9.8|
3,3,9.7|
3,4,2.8|
3,5,6.9|
3,6,0.17|
3,7,6.5|
4,0,9.7|
4,1,2.8|
4,2,0.28|
4,3,5|
4,4,0.18|
4,5,8.8|
4,6,8.9|
4,7,1.7|
5,0,4.1|
5,1,5.2|
5,2,9.4|
5,3,0.24|
5,4,0.18|
5,5,9.4|
5,6,8.3|
5,7,4|
6,0,0.29|
6,1,1.4|
6,2,2.5|
6,3,9.3|
6,4,7.3|
6,5,7.8|
6,6,3.2|
6,7,5.3|
7,0,2.5|
7,1,0.34|
7,2,2.6|
7,3,3.2|
7,4,6|
7,5,4.7|
7,6,5.6|
7,7,8.3|
];
constraint_x16_x12=[
0,0,9.7|
0,1,0.81|
0,2,1.1|
0,3,7.6|
0,4,6.5|
0,5,4.3|
0,6,8.8|
0,7,0.56|
1,0,8.6|
1,1,1.2|
1,2,5.5|
1,3,3.9|
1,4,4.2|
1,5,4.3|
1,6,5|
1,7,1.8|
2,0,5.2|
2,1,5.6|
2,2,7.1|
2,3,5.4|
2,4,6|
2,5,3.9|
2,6,2.2|
2,7,7.5|
3,0,1.7|
3,1,5.9|
3,2,6.4|
3,3,0.096|
3,4,7.2|
3,5,9.8|
3,6,5.3|
3,7,6.6|
4,0,9.9|
4,1,5|
4,2,1.8|
4,3,1.9|
4,4,7.1|
4,5,4.4|
4,6,8.9|
4,7,8.4|
5,0,8.9|
5,1,7.4|
5,2,3.5|
5,3,7.9|
5,4,1.5|
5,5,4.7|
5,6,3.7|
5,7,3.5|
6,0,6|
6,1,4.1|
6,2,8.1|
6,3,4.9|
6,4,3.7|
6,5,7.6|
6,6,9.5|
6,7,8.7|
7,0,9.3|
7,1,3|
7,2,0.089|
7,3,3.1|
7,4,8.8|
7,5,2|
7,6,4.6|
7,7,2.9|
];
constraint_x1_y1=[
0,0,4.9|
0,1,6.8|
0,2,3.5|
0,3,5.5|
0,4,0.43|
0,5,9.5|
0,6,2.7|
0,7,4.5|
1,0,8.2|
1,1,7.9|
1,2,6.2|
1,3,2|
1,4,9.9|
1,5,3.5|
1,6,8.8|
1,7,8.2|
2,0,5.7|
2,1,8.4|
2,2,7.3|
2,3,2.4|
2,4,2.9|
2,5,9|
2,6,0.57|
2,7,9.6|
3,0,0.027|
3,1,1.3|
3,2,8.7|
3,3,8.5|
3,4,8|
3,5,4.2|
3,6,3|
3,7,4.3|
4,0,3.8|
4,1,6.4|
4,2,5.1|
4,3,5|
4,4,7.2|
4,5,7.1|
4,6,3.5|
4,7,5.5|
5,0,0.15|
5,1,7.3|
5,2,8.3|
5,3,5.4|
5,4,9.7|
5,5,3.4|
5,6,0.82|
5,7,6.4|
6,0,0.53|
6,1,8.5|
6,2,2.7|
6,3,9.4|
6,4,3.5|
6,5,5.6|
6,6,6.2|
6,7,7.2|
7,0,8.9|
7,1,7.2|
7,2,4.1|
7,3,9.3|
7,4,0.046|
7,5,1.1|
7,6,9.6|
7,7,6.2|
];
constraint_x2_y2=[
0,0,8.3|
0,1,6.3|
0,2,8.7|
0,3,5.1|
0,4,4.9|
0,5,6.9|
0,6,6.2|
0,7,3.5|
1,0,7.1|
1,1,3.9|
1,2,6|
1,3,9.1|
1,4,5.4|
1,5,8.6|
1,6,1|
1,7,6.9|
2,0,9.3|
2,1,7.9|
2,2,1.3|
2,3,6.9|
2,4,6.1|
2,5,4.5|
2,6,8.6|
2,7,8|
3,0,8.4|
3,1,6.7|
3,2,7.3|
3,3,2.9|
3,4,9.9|
3,5,9.4|
3,6,1.1|
3,7,5.5|
4,0,4.3|
4,1,9.7|
4,2,8.1|
4,3,1.4|
4,4,7.6|
4,5,9.7|
4,6,5.2|
4,7,8.1|
5,0,5.8|
5,1,0.68|
5,2,3.5|
5,3,0.22|
5,4,0.089|
5,5,0.16|
5,6,5.9|
5,7,8.3|
6,0,5.3|
6,1,4.1|
6,2,9.9|
6,3,6.3|
6,4,8.8|
6,5,1.5|
6,6,6.1|
6,7,8.9|
7,0,2.2|
7,1,5.1|
7,2,0.029|
7,3,4|
7,4,2.3|
7,5,5|
7,6,0.65|
7,7,6.7|
];
constraint_x3_y3=[
0,0,9.4|
0,1,8.1|
0,2,4.2|
0,3,5.8|
0,4,4.7|
0,5,8|
0,6,0.85|
0,7,9.4|
1,0,4.7|
1,1,0.054|
1,2,9.7|
1,3,1.9|
1,4,0.12|
1,5,3.2|
1,6,4.9|
1,7,3.3|
2,0,5.4|
2,1,2.5|
2,2,1.5|
2,3,5.6|
2,4,6|
2,5,7.3|
2,6,7.4|
2,7,3.3|
3,0,4.6|
3,1,4|
3,2,2.6|
3,3,4.5|
3,4,8.8|
3,5,6.5|
3,6,0.38|
3,7,3.2|
4,0,3.6|
4,1,3.5|
4,2,8.4|
4,3,0.86|
4,4,8.4|
4,5,2.1|
4,6,3|
4,7,6.1|
5,0,4.1|
5,1,2.7|
5,2,6.2|
5,3,2.5|
5,4,9.1|
5,5,6.5|
5,6,1.9|
5,7,3.7|
6,0,2.5|
6,1,7.2|
6,2,4.6|
6,3,5.4|
6,4,8|
6,5,6.6|
6,6,6|
6,7,7.9|
7,0,8.1|
7,1,4.8|
7,2,4.5|
7,3,5.8|
7,4,7.7|
7,5,3.1|
7,6,1.6|
7,7,5.2|
];
constraint_x4_y4=[
0,0,2|
0,1,6.9|
0,2,3.5|
0,3,6.8|
0,4,5.2|
0,5,1.4|
0,6,1.7|
0,7,8.9|
1,0,6|
1,1,9|
1,2,2.2|
1,3,3.9|
1,4,4.9|
1,5,6.9|
1,6,9.3|
1,7,6.5|
2,0,6.2|
2,1,2.7|
2,2,3.9|
2,3,4.1|
2,4,7.2|
2,5,3.7|
2,6,1.9|
2,7,1.8|
3,0,9.3|
3,1,5.3|
3,2,9.3|
3,3,6|
3,4,5|
3,5,7.1|
3,6,1.5|
3,7,3.5|
4,0,2.8|
4,1,2.8|
4,2,3|
4,3,5.2|
4,4,7.4|
4,5,4.6|
4,6,6|
4,7,8.8|
5,0,6.1|
5,1,6.6|
5,2,2.1|
5,3,5.3|
5,4,5.2|
5,5,3.8|
5,6,4.7|
5,7,7.7|
6,0,3.8|
6,1,5.1|
6,2,3.5|
6,3,1.5|
6,4,6.9|
6,5,8.2|
6,6,2.2|
6,7,7.1|
7,0,2|
7,1,4.5|
7,2,8|
7,3,9.7|
7,4,0.19|
7,5,5.1|
7,6,1.9|
7,7,7.3|
];
constraint_x5_y5=[
0,0,4|
0,1,3|
0,2,2.1|
0,3,8|
0,4,4.4|
0,5,9.9|
0,6,6.7|
0,7,3.2|
1,0,3.1|
1,1,5.6|
1,2,6.6|
1,3,6.6|
1,4,0.44|
1,5,9.1|
1,6,3.5|
1,7,6.9|
2,0,2.8|
2,1,7|
2,2,5.6|
2,3,1.8|
2,4,6|
2,5,7.7|
2,6,3.8|
2,7,5.1|
3,0,3.1|
3,1,6.2|
3,2,9.9|
3,3,3.2|
3,4,7.5|
3,5,6.3|
3,6,1|
3,7,7.7|
4,0,0.61|
4,1,6.3|
4,2,2.8|
4,3,4.7|
4,4,4.6|
4,5,4.8|
4,6,9.8|
4,7,1|
5,0,2.3|
5,1,1.8|
5,2,3.4|
5,3,1.2|
5,4,4|
5,5,2.6|
5,6,3|
5,7,3.8|
6,0,3.3|
6,1,2.9|
6,2,0.73|
6,3,6.3|
6,4,7.8|
6,5,2.8|
6,6,3.6|
6,7,0.096|
7,0,6.6|
7,1,5|
7,2,5.8|
7,3,8.2|
7,4,4.6|
7,5,9.3|
7,6,4.2|
7,7,9.7|
];
constraint_x6_y6=[
0,0,8.3|
0,1,0.49|
0,2,7.1|
0,3,9.4|
0,4,4.8|
0,5,9.5|
0,6,3.7|
0,7,3.3|
1,0,9.6|
1,1,1.3|
1,2,1.5|
1,3,6.7|
1,4,7.4|
1,5,2|
1,6,6.6|
1,7,7.7|
2,0,0.041|
2,1,2.1|
2,2,9.1|
2,3,0.015|
2,4,0.2|
2,5,5|
2,6,9.4|
2,7,2.7|
3,0,1.1|
3,1,8|
3,2,8.3|
3,3,6.1|
3,4,8.8|
3,5,3.2|
3,6,6.2|
3,7,9.6|
4,0,9.6|
4,1,8.3|
4,2,3.2|
4,3,6.5|
4,4,3.3|
4,5,7.8|
4,6,7.8|
4,7,7.5|
5,0,0.51|
5,1,9.1|
5,2,8.8|
5,3,1.2|
5,4,6.3|
5,5,7.1|
5,6,6.5|
5,7,0.45|
6,0,3.2|
6,1,9.2|
6,2,6.5|
6,3,6.1|
6,4,6|
6,5,0.85|
6,6,4.2|
6,7,8.8|
7,0,4.4|
7,1,4.2|
7,2,6.1|
7,3,5.8|
7,4,9.4|
7,5,3.1|
7,6,8.2|
7,7,7.6|
];
constraint_x7_y7=[
0,0,9.3|
0,1,2.3|
0,2,6.7|
0,3,0.11|
0,4,4.7|
0,5,0.45|
0,6,7.2|
0,7,1.3|
1,0,4.9|
1,1,0.3|
1,2,2.3|
1,3,2.6|
1,4,5.6|
1,5,8.4|
1,6,1.8|
1,7,3.8|
2,0,7.4|
2,1,2.1|
2,2,4.6|
2,3,1.6|
2,4,6.1|
2,5,1.1|
2,6,8.7|
2,7,3.1|
3,0,2.6|
3,1,1.5|
3,2,7.1|
3,3,9.6|
3,4,2.5|
3,5,2.6|
3,6,6.9|
3,7,4.6|
4,0,1.8|
4,1,3.5|
4,2,6.6|
4,3,1.5|
4,4,3.4|
4,5,2.9|
4,6,2.8|
4,7,0.62|
5,0,2.2|
5,1,3.8|
5,2,8.4|
5,3,5.9|
5,4,5.7|
5,5,3.4|
5,6,2.6|
5,7,8.9|
6,0,8.2|
6,1,6.8|
6,2,5.5|
6,3,0.96|
6,4,0.29|
6,5,5.7|
6,6,9.8|
6,7,6.6|
7,0,1.7|
7,1,8.4|
7,2,1.1|
7,3,3.6|
7,4,7.5|
7,5,7.3|
7,6,2|
7,7,3.7|
];
initial_distribution_y1=[0.068,0.068,0.18,0.04,0.17,0.15,0.19,0.14];
initial_distribution_y2=[0.15,0.18,0.12,0.12,0.19,0.015,0.13,0.1];
initial_distribution_y3=[0.12,0.16,0.015,0.11,0.059,0.18,0.2,0.16];
initial_distribution_y4=[0.11,0.053,0.11,0.17,0.16,0.22,0.048,0.13];
initial_distribution_y5=[0.12,0.087,0.14,0.16,0.18,0.015,0.13,0.17];
initial_distribution_y6=[0.1,0.22,0.023,0.065,0.23,0.091,0.15,0.13];
initial_distribution_y7=[0.007,0.12,0.12,0.11,0.21,0.031,0.22,0.18];
transition_y1=[
0.2,0.038,0.18,0.14,0.046,0.087,0.13,0.17|
0.16,0.15,0.1,0.2,0.044,0.045,0.11,0.2|
0.15,0.14,0.14,0.13,0.019,0.14,0.084,0.2|
0.034,0.1,0.22,0.21,0.12,0.15,0.16,0.018|
0.045,0.046,0.15,0.059,0.019,0.31,0.17,0.2|
0.2,0.18,0.043,0.056,0.16,0.16,0.17,0.032|
0.27,0.027,0.12,0.047,0.21,0.042,0.097,0.19|
0.13,0.19,0.068,0.11,0.17,0.14,0.11,0.09|
];
transition_y2=[
0.18,0.17,0.21,0.074,0.025,0.13,0.2,0.01|
0.084,0.14,0.11,0.15,0.11,0.15,0.13,0.13|
0.078,0.066,0.22,0.17,0.07,0.041,0.2,0.15|
0.045,0.083,0.27,0.26,0.14,0.17,0.024,0.0087|
0.13,0.28,0.1,0.032,0.039,0.053,0.23,0.14|
0.12,0.085,0.16,0.091,0.12,0.21,0.11,0.11|
0.12,0.15,0.16,0.2,0.062,0.064,0.18,0.073|
0.35,0.2,0.013,0.0049,0.22,0.088,0.0073,0.12|
];
transition_y3=[
0.14,0.18,0.059,0.11,0.16,0.16,0.099,0.077|
0.22,0.045,0.21,0.12,0.18,0.2,0.014,0.011|
0.2,0.12,0.02,0.095,0.21,0.18,0.018,0.16|
0.2,0.044,0.026,0.22,0.058,0.21,0.016,0.23|
0.067,0.048,0.14,0.23,0.17,0.18,0.14,0.024|
0.19,0.13,0.093,0.16,0.12,0.17,0.016,0.12|
0.2,0.16,0.13,0.059,0.081,0.21,0.02,0.13|
0.19,0.079,0.053,0.084,0.16,0.095,0.15,0.18|
];
transition_y4=[
0.16,0.1,0.03,0.18,0.04,0.16,0.29,0.032|
0.0071,0.096,0.12,0.22,0.15,0.11,0.21,0.098|
0.034,0.16,0.18,0.14,0.079,0.099,0.14,0.17|
0.2,0.082,0.043,0.24,0.061,0.071,0.067,0.24|
0.12,0.18,0.11,0.13,0.13,0.18,0.018,0.13|
0.087,0.18,0.024,0.22,0.041,0.063,0.19,0.19|
0.076,0.028,0.23,0.26,0.11,0.08,0.16,0.051|
0.14,0.031,0.21,0.11,0.071,0.17,0.14,0.12|
];
transition_y5=[
0.075,0.2,0.13,0.14,0.041,0.18,0.16,0.07|
0.15,0.13,0.12,0.055,0.14,0.14,0.15,0.12|
0.23,0.0043,0.0066,0.026,0.27,0.18,0.19,0.084|
0.18,0.059,0.011,0.26,0.22,0.07,0.042,0.15|
0.15,0.17,0.081,0.16,0.17,0.06,0.19,0.029|
0.059,0.18,0.2,0.25,0.13,0.082,0.0045,0.093|
0.039,0.029,0.22,0.072,0.19,0.26,0.068,0.13|
0.077,0.17,0.13,0.2,0.051,0.14,0.043,0.2|
];
transition_y6=[
0.18,0.19,0.14,0.16,0.11,0.1,0.056,0.059|
0.14,0.17,0.099,0.079,0.064,0.17,0.17,0.11|
0.15,0.067,0.037,0.14,0.16,0.085,0.13,0.23|
0.097,0.16,0.26,0.017,0.12,0.22,0.073,0.056|
0.094,0.097,0.14,0.2,0.0081,0.26,0.19,0.0054|
0.12,0.2,0.12,0.18,0.15,0.081,0.038,0.11|
0.21,0.19,0.14,0.078,0.03,0.11,0.054,0.19|
0.09,0.18,0.11,0.14,0.16,0.13,0.12,0.084|
];
transition_y7=[
0.14,0.26,0.082,0.06,0.088,0.23,0.056,0.076|
0.15,0.11,0.16,0.13,0.2,0.1,0.13,0.01|
0.29,0.16,0.024,0.062,0.056,0.17,0.16,0.072|
0.055,0.18,0.11,0.15,0.044,0.13,0.21,0.11|
0.061,0.16,0.1,0.23,0.035,0.026,0.25,0.13|
0.17,0.08,0.14,0.13,0.16,0.026,0.15,0.15|
0.3,0.027,0.011,0.29,0.072,0.067,0.15,0.074|
0.23,0.14,0.16,0.0069,0.053,0.063,0.19,0.17|
];
